QPLIB_6287
LCQ
minimize
171 # number of variables
117 # number of constraints
0.0 # default value for linear coefficients in objective
141 # number of non-default linear coefficients in objective
1 158.0
2 -221.2
3 189.6
4 31.6
5 -442.4
6 -347.6
7 -347.6
8 -189.6
9 -410.8
10 63.2
11 474.0
12 94.8
13 252.8
14 505.6
15 -442.4
16 63.2
17 252.8
18 252.8
19 -221.2
20 -126.4
21 252.8
22 -126.4
23 31.6
24 -189.6
25 410.8
26 31.6
27 31.6
28 442.4
29 474.0
30 94.8
31 31.6
32 505.6
33 474.0
34 94.8
35 126.4
36 126.4
37 -347.6
38 -252.8
39 126.4
40 -94.8
41 474.0
42 474.0
43 31.6
44 505.6
45 158.0
46 -284.4
47 189.6
48 158.0
49 -316.0
50 158.0
51 -221.2
52 -63.2
53 158.0
54 158.0
55 -221.2
56 -221.2
57 -284.4
58 189.6
59 -126.4
60 -126.4
61 -600.4
62 -505.6
63 -126.4
64 -505.6
65 -347.6
66 -94.8
67 158.0
68 158.0
69 -316.0
70 -221.2
71 -63.2
72 -284.4
73 189.6
74 158.0
75 158.0
76 -316.0
77 -221.2
78 158.0
79 -221.2
80 -63.2
81 -284.4
82 189.6
83 -316.0
84 -221.2
85 -284.4
86 -63.2
87 758.4
88 284.4
89 379.2
90 758.4
91 316.0
92 790.0
93 -126.4
94 -126.4
95 -126.4
96 -126.4
97 -126.4
98 316.0
99 316.0
100 316.0
101 316.0
102 -126.4
103 158.0
104 -126.4
105 -126.4
106 -126.4
107 -726.8
108 94.8
109 94.8
110 94.8
111 379.2
112 94.8
113 94.8
114 94.8
115 -505.6
116 252.8
117 537.2
118 252.8
119 252.8
120 316.0
121 316.0
122 316.0
123 316.0
124 316.0
125 316.0
126 316.0
127 316.0
128 -284.4
129 -31.6
130 -31.6
131 -31.6
132 -31.6
133 -632.0
134 316.0
135 316.0
136 316.0
137 600.4
138 316.0
139 316.0
140 316.0
141 -284.4
0.0 # objective constant
432 # number of quadratic terms in all constraints
37 21090881 1 2.0
37 21090881 1 2.0
37 21090881 1 2.0
38 1076101121 1 2.0
38 1076101121 1 2.0
38 1076101121 1 2.0
38 1076101121 1 2.0
38 1076101121 1 2.0
39 21097233 1 2.0
39 21097233 1 2.0
39 21097233 1 2.0
39 21097233 1 2.0
39 21097233 1 2.0
39 21097233 1 2.0
40 1076101121 1 2.0
40 1076101121 1 2.0
40 1076101121 1 2.0
40 1076101121 1 2.0
40 1076101121 1 2.0
40 1076101121 1 2.0
40 1076101121 1 2.0
40 1076101121 1 2.0
41 1 1 2.0
41 1 1 2.0
41 1 1 2.0
41 1 1 2.0
41 1 1 2.0
41 1 1 2.0
41 1 1 2.0
42 1076101121 1 2.0
42 1076101121 1 2.0
42 1076101121 1 2.0
42 1076101121 1 2.0
42 1076101121 1 2.0
42 1076101121 1 2.0
42 1076101121 1 2.0
42 1076101121 1 2.0
42 1076101121 1 2.0
43 835079082 1 2.0
43 835079082 1 2.0
43 835079082 1 2.0
44 1071857043 1 2.0
45 1 -417814418 2.0
45 1 -417814418 2.0
45 1 -417814418 2.0
45 1 -417814418 2.0
45 1 -417814418 2.0
45 1 -417814418 2.0
46 1073005168 2 2.0
46 1073005168 2 2.0
46 1073005168 2 2.0
46 1073005168 2 2.0
46 1073005168 2 2.0
46 1073005168 2 2.0
47 1 -1491212644 2.0
47 1 -1491212644 2.0
47 1 -1491212644 2.0
47 1 -1491212644 2.0
47 1 -1491212644 2.0
47 1 -1491212644 2.0
48 1073137897 1 2.0
48 1073137897 1 2.0
48 1073137897 1 2.0
48 1073137897 1 2.0
48 1073137897 1 2.0
49 417814420 2 2.0
49 417814420 2 2.0
49 417814420 2 2.0
49 417814420 2 2.0
49 417814420 2 2.0
50 1072905617 2 2.0
50 1072905617 2 2.0
50 1072905617 2 2.0
50 1072905617 2 2.0
50 1072905617 2 2.0
50 1072905617 2 2.0
51 238594024 1 2.0
51 238594024 1 2.0
51 238594024 1 2.0
51 238594024 1 2.0
51 238594024 1 2.0
51 238594024 1 2.0
52 1071405757 1 2.0
52 1071405757 1 2.0
52 1071405757 1 2.0
52 1071405757 1 2.0
52 1071405757 1 2.0
53 1669883286 124 2.0
53 1669883286 124 2.0
53 1669883286 124 2.0
53 1669883286 124 2.0
53 1669883286 124 2.0
54 1073536094 1 2.0
54 1073536094 1 2.0
54 1073536094 1 2.0
54 1073536094 1 2.0
55 -2147483648 -1789455173 2.0
55 -2147483648 -1789455173 2.0
55 -2147483648 -1789455173 2.0
55 -2147483648 -1789455173 2.0
56 1072387966 256 2.0
56 1072387966 256 2.0
56 1072387966 256 2.0
56 1072387966 256 2.0
56 1072387966 256 2.0
57 1 -1491212644 2.0
57 1 -1491212644 2.0
57 1 -1491212644 2.0
57 1 -1491212644 2.0
57 1 -1491212644 2.0
58 1073137897 1 2.0
58 1073137897 1 2.0
58 1073137897 1 2.0
58 1073137897 1 2.0
58 1073137897 1 2.0
59 34 -417539540 2.0
59 34 -417539540 2.0
59 34 -417539540 2.0
59 34 -417539540 2.0
59 34 -417539540 2.0
60 1072587063 1 2.0
60 1072587063 1 2.0
60 1072587063 1 2.0
60 1072587063 1 2.0
60 1072587063 1 2.0
60 1072587063 1 2.0
61 1953845015 1 2.0
61 1953845015 1 2.0
61 1953845015 1 2.0
61 1953845015 1 2.0
61 1953845015 1 2.0
61 1953845015 1 2.0
62 1076101121 544503153 2.0
62 1076101121 544503153 2.0
62 1076101121 544503153 2.0
62 1076101121 544503153 2.0
62 1076101121 544503153 2.0
62 1076101121 544503153 2.0
63 1701603687 1 2.0
63 1701603687 1 2.0
63 1701603687 1 2.0
63 1701603687 1 2.0
63 1701603687 1 2.0
63 1701603687 1 2.0
64 1734438945 1076101121 2.0
64 1734438945 1076101121 2.0
64 1734438945 1076101121 2.0
65 1769414758 1 2.0
65 1769414758 1 2.0
65 1769414758 1 2.0
65 1769414758 1 2.0
65 1769414758 1 2.0
66 1076101121 6845541 2.0
66 1076101121 6845541 2.0
66 1076101121 6845541 2.0
66 1076101121 6845541 2.0
66 1076101121 6845541 2.0
66 1076101121 6845541 2.0
67 34 1 2.0
67 34 1 2.0
67 34 1 2.0
67 34 1 2.0
67 34 1 2.0
67 34 1 2.0
67 34 1 2.0
67 34 1 2.0
68 1076101121 1 2.0
68 1076101121 1 2.0
68 1076101121 1 2.0
68 1076101121 1 2.0
68 1076101121 1 2.0
68 1076101121 1 2.0
68 1076101121 1 2.0
69 1734430730 1 2.0
69 1734430730 1 2.0
69 1734430730 1 2.0
69 1734430730 1 2.0
69 1734430730 1 2.0
69 1734430730 1 2.0
69 1734430730 1 2.0
69 1734430730 1 2.0
69 1734430730 1 2.0
70 1684625254 1076101121 2.0
70 1684625254 1076101121 2.0
70 1684625254 1076101121 2.0
71 616720501 1 2.0
72 1076101121 32718 2.0
72 1076101121 32718 2.0
72 1076101121 32718 2.0
72 1076101121 32718 2.0
72 1076101121 32718 2.0
72 1076101121 32718 2.0
73 21101185 1 2.0
73 21101185 1 2.0
73 21101185 1 2.0
73 21101185 1 2.0
73 21101185 1 2.0
73 21101185 1 2.0
74 1076101121 1 2.0
74 1076101121 1 2.0
74 1076101121 1 2.0
74 1076101121 1 2.0
74 1076101121 1 2.0
74 1076101121 1 2.0
75 50 1 2.0
75 50 1 2.0
75 50 1 2.0
75 50 1 2.0
75 50 1 2.0
76 1076101121 1 2.0
76 1076101121 1 2.0
76 1076101121 1 2.0
76 1076101121 1 2.0
76 1076101121 1 2.0
77 1734430730 1 2.0
77 1734430730 1 2.0
77 1734430730 1 2.0
77 1734430730 1 2.0
77 1734430730 1 2.0
77 1734430730 1 2.0
78 1684625254 1 2.0
78 1684625254 1 2.0
78 1684625254 1 2.0
78 1684625254 1 2.0
78 1684625254 1 2.0
78 1684625254 1 2.0
79 616720501 1 2.0
79 616720501 1 2.0
79 616720501 1 2.0
79 616720501 1 2.0
79 616720501 1 2.0
80 32718 1 2.0
80 32718 1 2.0
80 32718 1 2.0
80 32718 1 2.0
80 32718 1 2.0
81 21101617 1 2.0
81 21101617 1 2.0
81 21101617 1 2.0
81 21101617 1 2.0
82 1 1 2.0
82 1 1 2.0
82 1 1 2.0
82 1 1 2.0
83 21101409 1 2.0
83 21101409 1 2.0
83 21101409 1 2.0
83 21101409 1 2.0
83 21101409 1 2.0
84 1 1 2.0
84 1 1 2.0
84 1 1 2.0
84 1 1 2.0
84 1 1 2.0
85 49 1 2.0
85 49 1 2.0
85 49 1 2.0
85 49 1 2.0
85 49 1 2.0
86 1 1 2.0
86 1 1 2.0
86 1 1 2.0
86 1 1 2.0
86 1 1 2.0
87 34 1 2.0
87 34 1 2.0
87 34 1 2.0
87 34 1 2.0
87 34 1 2.0
87 34 1 2.0
88 1 1 2.0
88 1 1 2.0
88 1 1 2.0
88 1 1 2.0
88 1 1 2.0
88 1 1 2.0
89 1818576901 1 2.0
89 1818576901 1 2.0
89 1818576901 1 2.0
89 1818576901 1 2.0
89 1818576901 1 2.0
89 1818576901 1 2.0
90 32625 1 2.0
90 32625 1 2.0
90 32625 1 2.0
90 32625 1 2.0
90 32625 1 2.0
90 32625 1 2.0
91 616708985 1 2.0
91 616708985 1 2.0
91 616708985 1 2.0
92 32718 1 2.0
92 32718 1 2.0
92 32718 1 2.0
92 32718 1 2.0
92 32718 1 2.0
93 1 1 2.0
93 1 1 2.0
93 1 1 2.0
93 1 1 2.0
93 1 1 2.0
93 1 1 2.0
94 1 1 2.0
94 1 1 2.0
94 1 1 2.0
94 1 1 2.0
94 1 1 2.0
94 1 1 2.0
94 1 1 2.0
94 1 1 2.0
95 130 1 2.0
95 130 1 2.0
95 130 1 2.0
95 130 1 2.0
95 130 1 2.0
95 130 1 2.0
95 130 1 2.0
96 1 1 2.0
96 1 1 2.0
96 1 1 2.0
96 1 1 2.0
96 1 1 2.0
96 1 1 2.0
96 1 1 2.0
96 1 1 2.0
96 1 1 2.0
97 592798945 1 2.0
97 592798945 1 2.0
97 592798945 1 2.0
98 32718 1 2.0
99 2 1 2.0
99 2 1 2.0
99 2 1 2.0
99 2 1 2.0
99 2 1 2.0
99 2 1 2.0
100 1 1 2.0
100 1 1 2.0
100 1 1 2.0
100 1 1 2.0
100 1 1 2.0
100 1 1 2.0
101 21097473 1 2.0
101 21097473 1 2.0
101 21097473 1 2.0
101 21097473 1 2.0
101 21097473 1 2.0
101 21097473 1 2.0
102 1 1 2.0
102 1 1 2.0
102 1 1 2.0
102 1 1 2.0
102 1 1 2.0
103 1 1 2.0
103 1 1 2.0
103 1 1 2.0
103 1 1 2.0
103 1 1 2.0
104 1 1 2.0
104 1 1 2.0
104 1 1 2.0
104 1 1 2.0
104 1 1 2.0
104 1 1 2.0
105 21090881 1 2.0
105 21090881 1 2.0
105 21090881 1 2.0
105 21090881 1 2.0
105 21090881 1 2.0
105 21090881 1 2.0
106 1 1 2.0
106 1 1 2.0
106 1 1 2.0
106 1 1 2.0
106 1 1 2.0
107 21097521 1 2.0
107 21097521 1 2.0
107 21097521 1 2.0
107 21097521 1 2.0
107 21097521 1 2.0
108 1 1 2.0
108 1 1 2.0
108 1 1 2.0
108 1 1 2.0
109 1 1 2.0
109 1 1 2.0
109 1 1 2.0
109 1 1 2.0
110 1 1 2.0
110 1 1 2.0
110 1 1 2.0
110 1 1 2.0
110 1 1 2.0
111 1 1 2.0
111 1 1 2.0
111 1 1 2.0
111 1 1 2.0
111 1 1 2.0
112 1 1 2.0
112 1 1 2.0
112 1 1 2.0
112 1 1 2.0
112 1 1 2.0
113 1 1 2.0
113 1 1 2.0
113 1 1 2.0
113 1 1 2.0
113 1 1 2.0
114 2 1 2.0
114 2 1 2.0
114 2 1 2.0
114 2 1 2.0
114 2 1 2.0
114 2 1 2.0
115 1 1 2.0
115 1 1 2.0
115 1 1 2.0
115 1 1 2.0
115 1 1 2.0
115 1 1 2.0
116 1 1 2.0
116 1 1 2.0
116 1 1 2.0
116 1 1 2.0
116 1 1 2.0
116 1 1 2.0
117 2 1 2.0
117 2 1 2.0
117 2 1 2.0
117 2 1 2.0
117 2 1 2.0
117 2 1 2.0
1252 # number of linear terms in all constraints
1 1 1.0
1 2 1.0
1 3 1.0
1 45 1.0
1 46 1.0
1 47 1.0
1 48 1.0
1 49 1.0
1 50 1.0
1 51 1.0
1 52 1.0
1 53 1.0
1 54 1.0
1 55 1.0
1 56 1.0
1 57 1.0
1 58 1.0
1 67 1.0
1 68 1.0
1 69 1.0
1 70 1.0
1 71 1.0
1 72 1.0
1 73 1.0
1 74 1.0
1 75 1.0
1 76 1.0
1 77 1.0
1 78 1.0
1 79 1.0
1 80 1.0
1 81 1.0
1 82 1.0
1 83 1.0
1 84 1.0
1 85 1.0
1 86 1.0
1 87 1.0
1 88 1.0
1 89 1.0
1 90 1.0
1 91 1.0
1 92 1.0
1 93 -1.0
1 94 -1.0
1 95 -1.0
1 96 -1.0
1 97 -1.0
1 98 -1.0
1 99 -1.0
1 100 -1.0
1 101 -1.0
1 102 -1.0
1 104 -1.0
1 105 -1.0
1 106 -1.0
1 107 -1.0
1 108 -1.0
1 109 -1.0
1 110 -1.0
1 112 -1.0
1 113 -1.0
1 114 -1.0
1 115 -1.0
1 116 -1.0
1 118 -1.0
1 119 -1.0
1 120 -1.0
1 121 -1.0
1 122 -1.0
1 123 -1.0
1 124 -1.0
1 125 -1.0
1 126 -1.0
1 127 -1.0
1 128 -1.0
1 129 -1.0
1 130 -1.0
1 131 -1.0
1 132 -1.0
1 133 -1.0
1 134 -1.0
1 135 -1.0
1 136 -1.0
1 138 -1.0
1 139 -1.0
1 140 -1.0
1 141 -1.0
2 4 1.0
2 5 1.0
2 6 1.0
2 7 1.0
2 8 1.0
2 9 1.0
2 10 1.0
2 93 1.0
2 94 1.0
2 95 1.0
2 96 1.0
2 97 1.0
3 11 1.0
3 12 1.0
3 13 1.0
3 14 1.0
3 87 1.0
3 88 1.0
3 89 1.0
3 90 1.0
3 91 1.0
3 92 1.0
3 98 1.0
3 99 1.0
3 100 1.0
3 101 1.0
3 107 -1.0
3 115 -1.0
3 128 -1.0
3 133 -1.0
3 141 -1.0
3 169 1.0
4 15 1.0
4 16 1.0
4 102 1.0
4 103 1.0
4 104 1.0
4 105 1.0
4 106 1.0
4 107 1.0
5 17 1.0
5 18 1.0
5 19 1.0
5 20 1.0
5 21 1.0
5 22 1.0
5 23 1.0
5 24 1.0
5 108 1.0
5 109 1.0
5 110 1.0
5 111 1.0
5 112 1.0
5 113 1.0
5 114 1.0
5 115 1.0
6 25 1.0
6 26 1.0
6 27 1.0
6 28 1.0
6 116 1.0
6 117 1.0
6 118 1.0
6 119 1.0
7 29 1.0
7 30 1.0
7 31 1.0
7 32 1.0
7 120 1.0
7 121 1.0
7 122 1.0
7 123 1.0
7 170 1.0
8 33 1.0
8 34 1.0
8 124 1.0
8 125 1.0
8 126 1.0
8 127 1.0
8 128 1.0
9 35 1.0
9 36 1.0
9 37 1.0
9 38 1.0
9 39 1.0
9 40 1.0
9 129 1.0
9 130 1.0
9 131 1.0
9 132 1.0
9 133 1.0
10 41 1.0
10 42 1.0
10 43 1.0
10 44 1.0
10 134 1.0
10 135 1.0
10 136 1.0
10 137 1.0
10 138 1.0
10 139 1.0
10 140 1.0
10 141 1.0
10 171 1.0
11 1 1.0
11 4 1.0
11 11 1.0
11 17 1.0
11 25 1.0
11 29 1.0
11 35 1.0
11 41 1.0
11 45 1.0
11 53 1.0
11 59 1.0
11 67 1.0
11 74 1.0
11 87 1.0
12 18 1.0
12 33 1.0
12 36 1.0
12 48 1.0
12 54 1.0
12 60 1.0
12 68 1.0
12 75 1.0
13 5 1.0
13 15 1.0
13 19 1.0
13 37 1.0
13 49 1.0
13 61 1.0
13 69 1.0
13 76 1.0
13 83 1.0
13 88 1.0
13 169 1.0
13 170 1.0
13 171 1.0
14 6 1.0
14 12 1.0
14 20 1.0
14 26 1.0
14 30 1.0
14 38 1.0
14 55 1.0
14 62 1.0
14 77 1.0
14 84 1.0
14 89 1.0
15 21 1.0
15 39 1.0
15 42 1.0
15 50 1.0
15 63 1.0
15 78 1.0
15 90 1.0
16 2 1.0
16 7 1.0
16 22 1.0
16 27 1.0
16 34 1.0
16 51 1.0
16 56 1.0
16 64 1.0
16 70 1.0
16 79 1.0
17 8 1.0
17 13 1.0
17 23 1.0
17 40 1.0
17 52 1.0
17 65 1.0
17 71 1.0
17 80 1.0
17 86 1.0
18 9 1.0
18 24 1.0
18 31 1.0
18 43 1.0
18 46 1.0
18 57 1.0
18 72 1.0
18 81 1.0
18 85 1.0
18 91 1.0
19 3 1.0
19 10 1.0
19 14 1.0
19 16 1.0
19 28 1.0
19 32 1.0
19 44 1.0
19 47 1.0
19 58 1.0
19 66 1.0
19 73 1.0
19 82 1.0
19 92 1.0
20 45 1.0
20 46 1.0
20 47 1.0
21 48 1.0
21 49 1.0
21 50 1.0
21 51 1.0
21 52 1.0
22 53 1.0
22 54 1.0
22 55 1.0
22 56 1.0
22 57 1.0
22 58 1.0
23 59 1.0
23 60 1.0
23 61 1.0
23 62 1.0
23 63 1.0
23 64 1.0
23 65 1.0
23 66 1.0
24 67 1.0
24 68 1.0
24 69 1.0
24 70 1.0
24 71 1.0
24 72 1.0
24 73 1.0
25 74 1.0
25 75 1.0
25 76 1.0
25 77 1.0
25 78 1.0
25 79 1.0
25 80 1.0
25 81 1.0
25 82 1.0
26 83 1.0
26 84 1.0
26 85 1.0
27 87 1.0
27 88 1.0
27 89 1.0
27 90 1.0
27 91 1.0
27 92 1.0
28 45 1.0
28 46 1.0
28 47 1.0
28 93 -1.0
28 108 -1.0
28 116 -1.0
28 124 -1.0
28 134 -1.0
29 48 1.0
29 49 1.0
29 50 1.0
29 51 1.0
29 52 1.0
29 94 -1.0
29 98 -1.0
29 109 -1.0
29 120 -1.0
29 129 -1.0
29 135 -1.0
30 53 1.0
30 54 1.0
30 55 1.0
30 56 1.0
30 57 1.0
30 58 1.0
30 99 -1.0
30 102 -1.0
30 110 -1.0
30 121 -1.0
30 125 -1.0
30 130 -1.0
30 136 -1.0
31 67 1.0
31 68 1.0
31 69 1.0
31 70 1.0
31 71 1.0
31 72 1.0
31 73 1.0
31 95 -1.0
31 104 -1.0
31 126 -1.0
32 74 1.0
32 75 1.0
32 76 1.0
32 77 1.0
32 78 1.0
32 79 1.0
32 80 1.0
32 81 1.0
32 82 1.0
32 96 -1.0
32 100 -1.0
32 105 -1.0
32 112 -1.0
32 118 -1.0
32 122 -1.0
32 127 -1.0
32 131 -1.0
32 138 -1.0
33 83 1.0
33 84 1.0
33 85 1.0
33 101 -1.0
33 113 -1.0
33 139 -1.0
34 86 1.0
34 97 -1.0
34 106 -1.0
34 114 -1.0
34 119 -1.0
34 123 -1.0
34 132 -1.0
34 140 -1.0
35 87 1.0
35 88 1.0
35 89 1.0
35 90 1.0
35 91 1.0
35 92 1.0
35 107 -1.0
35 115 -1.0
35 128 -1.0
35 133 -1.0
35 141 -1.0
36 87 1.0
36 88 1.0
36 89 1.0
36 90 1.0
36 91 1.0
36 92 1.0
36 107 -1.0
36 115 -1.0
36 128 -1.0
36 133 -1.0
36 141 -1.0
37 45 -4.49198
37 46 -4.49198
37 47 -4.49198
37 93 -0.26738
37 108 -0.427807
37 116 4.0107
37 124 2.6738
37 134 -0.213904
38 48 -4.49198
38 49 -4.49198
38 50 -4.49198
38 51 -4.49198
38 52 -4.49198
38 94 -0.26738
38 98 3.63636
38 109 -0.427807
38 120 2.62032
38 129 0.26738
38 135 -0.213904
39 53 -4.49198
39 54 -4.49198
39 55 -4.49198
39 56 -4.49198
39 57 -4.49198
39 58 -4.49198
39 99 3.63636
39 102 0.0534759
39 110 -0.427807
39 121 2.62032
39 125 2.6738
39 130 0.26738
39 136 -0.213904
40 103 -4.4385
40 111 -4.91979
40 117 -0.481283
40 137 -4.70588
41 67 -4.49198
41 68 -4.49198
41 69 -4.49198
41 70 -4.49198
41 71 -4.49198
41 72 -4.49198
41 73 -4.49198
41 95 -0.26738
41 104 0.0534759
41 126 2.6738
42 74 -4.49198
42 75 -4.49198
42 76 -4.49198
42 77 -4.49198
42 78 -4.49198
42 79 -4.49198
42 80 -4.49198
42 81 -4.49198
42 82 -4.49198
42 96 -0.26738
42 100 3.63636
42 105 0.0534759
42 112 -0.427807
42 118 4.0107
42 122 2.62032
42 127 2.6738
42 131 0.26738
42 138 -0.213904
43 83 -4.49198
43 84 -4.49198
43 85 -4.49198
43 101 3.63636
43 113 -0.427807
43 139 -0.213904
44 86 -4.49198
44 97 -0.26738
44 106 0.0534759
44 114 -0.427807
44 119 4.0107
44 123 2.62032
44 132 0.26738
44 140 -0.213904
45 87 -5.34759
45 88 -5.34759
45 89 -5.34759
45 90 -5.34759
45 91 -5.34759
45 92 -5.34759
45 107 0.909091
45 115 0.427807
45 128 3.52941
45 133 1.12299
45 141 0.641711
46 1 4.0107
46 4 4.27807
46 11 0.374332
46 17 4.4385
46 29 1.39037
46 35 3.74332
46 41 4.2246
46 45 -0.481283
46 53 -0.481283
46 59 -0.481283
46 67 -0.481283
46 74 -0.481283
46 87 -0.481283
47 1 -0.855615
47 4 -0.588235
47 11 -4.49198
47 17 -0.427807
47 25 -4.86631
47 29 -3.47594
47 35 -1.12299
47 41 -0.641711
47 45 -5.34759
47 53 -5.34759
47 59 -5.34759
47 67 -5.34759
47 74 -5.34759
47 87 -5.34759
48 18 4.4385
48 33 1.3369
48 36 3.74332
48 48 -0.481283
48 54 -0.481283
48 60 -0.481283
48 68 -0.481283
48 75 -0.481283
49 18 -5.08021
49 33 -8.18182
49 36 -5.7754
49 48 -10.0
49 54 -10.0
49 60 -10.0
49 68 -10.0
49 75 -10.0
50 5 4.27807
50 15 3.95722
50 19 4.4385
50 37 3.74332
50 49 -0.481283
50 61 -0.481283
50 69 -0.481283
50 76 -0.481283
50 83 -0.481283
50 88 -0.481283
50 169 0.374332
50 170 1.39037
50 171 4.2246
51 5 0.802139
51 15 0.481283
51 19 0.962567
51 37 0.26738
51 49 -3.95722
51 61 -3.95722
51 69 -3.95722
51 76 -3.95722
51 83 -3.95722
51 88 -3.95722
51 169 -3.1016
51 170 -2.08556
51 171 0.748663
52 6 4.27807
52 12 0.374332
52 20 4.4385
52 30 1.39037
52 38 3.74332
52 55 -0.481283
52 62 -0.481283
52 77 -0.481283
52 84 -0.481283
52 89 -0.481283
53 6 -0.26738
53 12 -4.17112
53 20 -0.106952
53 26 -4.54545
53 30 -3.15508
53 38 -0.802139
53 55 -5.02674
53 62 -5.02674
53 77 -5.02674
53 84 -5.02674
53 89 -5.02674
54 21 4.4385
54 39 3.74332
54 42 4.2246
54 50 -0.481283
54 63 -0.481283
54 78 -0.481283
54 90 -0.481283
55 21 -0.962567
55 39 -1.65775
55 42 -1.17647
55 50 -5.88235
55 63 -5.88235
55 78 -5.88235
55 90 -5.88235
56 2 4.0107
56 7 4.27807
56 22 4.4385
56 34 1.3369
56 51 -0.481283
56 56 -0.481283
56 64 -0.481283
56 70 -0.481283
56 79 -0.481283
57 2 1.12299
57 7 1.39037
57 22 1.5508
57 27 -2.8877
57 34 -1.5508
57 51 -3.36898
57 56 -3.36898
57 64 -3.36898
57 70 -3.36898
57 79 -3.36898
58 8 4.27807
58 13 0.374332
58 23 4.4385
58 40 3.74332
58 52 -0.481283
58 65 -0.481283
58 71 -0.481283
58 80 -0.481283
58 86 -0.481283
59 8 0.160428
59 13 -3.74332
59 23 0.320856
59 40 -0.374332
59 52 -4.59893
59 65 -4.59893
59 71 -4.59893
59 80 -4.59893
59 86 -4.59893
60 9 4.27807
60 24 4.4385
60 31 1.39037
60 43 4.2246
60 46 -0.481283
60 57 -0.481283
60 72 -0.481283
60 81 -0.481283
60 85 -0.481283
60 91 -0.481283
61 9 -3.26203
61 24 -3.1016
61 31 -6.14973
61 43 -3.31551
61 46 -8.02139
61 57 -8.02139
61 72 -8.02139
61 81 -8.02139
61 85 -8.02139
61 91 -8.02139
62 3 4.0107
62 10 4.27807
62 14 0.374332
62 16 3.95722
62 32 1.39037
62 44 4.2246
62 47 -0.481283
62 58 -0.481283
62 66 -0.481283
62 73 -0.481283
62 82 -0.481283
62 92 -0.481283
63 3 -3.31551
63 10 -3.04813
63 14 -6.95187
63 16 -3.36898
63 28 -7.3262
63 32 -5.93583
63 44 -3.1016
63 47 -7.80749
63 58 -7.80749
63 66 -7.80749
63 73 -7.80749
63 82 -7.80749
63 92 -7.80749
64 45 -1.73469
64 46 -1.73469
64 47 -1.73469
64 93 -1.58163
64 108 -2.5
64 116 -1.63265
64 124 -2.09184
64 134 -0.867347
65 48 -1.73469
65 49 -1.73469
65 50 -1.73469
65 51 -1.73469
65 52 -1.73469
65 94 -1.58163
65 98 -2.04082
65 109 -2.5
65 120 -2.65306
65 129 0.204082
65 135 -0.867347
66 53 -1.73469
66 54 -1.73469
66 55 -1.73469
66 56 -1.73469
66 57 -1.73469
66 58 -1.73469
66 99 -2.04082
66 102 -1.22449
66 110 -2.5
66 121 -2.65306
66 125 -2.09184
66 130 0.204082
66 136 -0.867347
67 103 -2.95918
67 111 -4.23469
67 117 -3.36735
67 137 -2.60204
68 67 -1.73469
68 68 -1.73469
68 69 -1.73469
68 70 -1.73469
68 71 -1.73469
68 72 -1.73469
68 73 -1.73469
68 95 -1.58163
68 104 -1.22449
68 126 -2.09184
69 74 -1.73469
69 75 -1.73469
69 76 -1.73469
69 77 -1.73469
69 78 -1.73469
69 79 -1.73469
69 80 -1.73469
69 81 -1.73469
69 82 -1.73469
69 96 -1.58163
69 100 -2.04082
69 105 -1.22449
69 112 -2.5
69 118 -1.63265
69 122 -2.65306
69 127 -2.09184
69 131 0.204082
69 138 -0.867347
70 83 -1.73469
70 84 -1.73469
70 85 -1.73469
70 101 -2.04082
70 113 -2.5
70 139 -0.867347
71 86 -1.73469
71 97 -1.58163
71 106 -1.22449
71 114 -2.5
71 119 -1.63265
71 123 -2.65306
71 132 0.204082
71 140 -0.867347
72 87 -5.5102
72 88 -5.5102
72 89 -5.5102
72 90 -5.5102
72 91 -5.5102
72 92 -5.5102
72 107 2.55102
72 115 1.27551
72 128 1.68367
72 133 3.97959
72 141 2.90816
73 1 0.204082
73 4 1.78571
73 11 2.2449
73 17 2.70408
73 25 1.83673
73 29 2.85714
73 41 1.07143
73 45 -1.53061
73 53 -1.53061
73 59 -1.53061
73 67 -1.53061
73 74 -1.53061
73 87 -1.53061
74 1 -6.68367
74 4 -5.10204
74 11 -4.64286
74 17 -4.18367
74 25 -5.05102
74 29 -4.03061
74 35 -6.88776
74 41 -5.81633
74 45 -8.41837
74 53 -8.41837
74 59 -8.41837
74 67 -8.41837
74 74 -8.41837
74 87 -8.41837
75 18 2.70408
75 33 2.29592
75 48 -1.53061
75 54 -1.53061
75 60 -1.53061
75 68 -1.53061
75 75 -1.53061
76 18 -3.16327
76 33 -3.57143
76 36 -5.86735
76 48 -7.39796
76 54 -7.39796
76 60 -7.39796
76 68 -7.39796
76 75 -7.39796
77 5 1.78571
77 15 1.42857
77 19 2.70408
77 49 -1.53061
77 61 -1.53061
77 69 -1.53061
77 76 -1.53061
77 83 -1.53061
77 88 -1.53061
77 169 2.2449
77 170 2.85714
77 171 1.07143
78 5 -2.29592
78 15 -2.65306
78 19 -1.37755
78 37 -4.08163
78 49 -5.61224
78 61 -5.61224
78 69 -5.61224
78 76 -5.61224
78 83 -5.61224
78 88 -5.61224
78 169 -1.83673
78 170 -1.22449
78 171 -3.0102
79 6 1.78571
79 12 2.2449
79 20 2.70408
79 26 1.83673
79 30 2.85714
79 55 -1.53061
79 62 -1.53061
79 77 -1.53061
79 84 -1.53061
79 89 -1.53061
80 6 -4.13265
80 12 -3.67347
80 20 -3.21429
80 26 -4.08163
80 30 -3.06122
80 38 -5.91837
80 55 -7.44898
80 62 -7.44898
80 77 -7.44898
80 84 -7.44898
80 89 -7.44898
81 21 2.70408
81 42 1.07143
81 50 -1.53061
81 63 -1.53061
81 78 -1.53061
81 90 -1.53061
82 21 -5.15306
82 39 -7.85714
82 42 -6.78571
82 50 -9.38776
82 63 -9.38776
82 78 -9.38776
82 90 -9.38776
83 2 0.204082
83 7 1.78571
83 22 2.70408
83 27 1.83673
83 34 2.29592
83 51 -1.53061
83 56 -1.53061
83 64 -1.53061
83 70 -1.53061
83 79 -1.53061
84 2 -2.29592
84 7 -0.714286
84 22 0.204082
84 27 -0.663265
84 34 -0.204082
84 51 -4.03061
84 56 -4.03061
84 64 -4.03061
84 70 -4.03061
84 79 -4.03061
85 8 1.78571
85 13 2.2449
85 23 2.70408
85 52 -1.53061
85 65 -1.53061
85 71 -1.53061
85 80 -1.53061
85 86 -1.53061
86 8 -6.68367
86 13 -6.22449
86 23 -5.76531
86 40 -8.46939
86 52 -10.0
86 65 -10.0
86 71 -10.0
86 80 -10.0
86 86 -10.0
87 9 1.78571
87 24 2.70408
87 31 2.85714
87 43 1.07143
87 46 -1.53061
87 57 -1.53061
87 72 -1.53061
87 81 -1.53061
87 85 -1.53061
87 91 -1.53061
88 9 -3.31633
88 24 -2.39796
88 31 -2.2449
88 43 -4.03061
88 46 -6.63265
88 57 -6.63265
88 72 -6.63265
88 81 -6.63265
88 85 -6.63265
88 91 -6.63265
89 3 0.204082
89 10 1.78571
89 14 2.2449
89 16 1.42857
89 28 1.83673
89 32 2.85714
89 44 1.07143
89 47 -1.53061
89 58 -1.53061
89 66 -1.53061
89 73 -1.53061
89 82 -1.53061
89 92 -1.53061
90 3 -3.52041
90 10 -1.93878
90 14 -1.47959
90 16 -2.29592
90 28 -1.88776
90 32 -0.867347
90 44 -2.65306
90 47 -5.2551
90 58 -5.2551
90 66 -5.2551
90 73 -5.2551
90 82 -5.2551
90 92 -5.2551
91 45 -1.2973
91 46 -1.2973
91 47 -1.2973
91 93 -1.08108
91 108 -0.702703
91 116 -0.108108
91 124 0.162162
91 134 -1.89189
92 48 -1.2973
92 49 -1.2973
92 50 -1.2973
92 51 -1.2973
92 52 -1.2973
92 94 -1.08108
92 98 0.540541
92 109 -0.702703
92 120 -1.08108
92 129 -0.540541
92 135 -1.89189
93 53 -1.2973
93 54 -1.2973
93 55 -1.2973
93 56 -1.2973
93 57 -1.2973
93 58 -1.2973
93 99 0.540541
93 102 -2.86486
93 110 -0.702703
93 121 -1.08108
93 125 0.162162
93 130 -0.540541
93 136 -1.89189
94 103 -4.16216
94 111 -2.0
94 117 -1.40541
94 137 -3.18919
95 67 -1.2973
95 68 -1.2973
95 69 -1.2973
95 70 -1.2973
95 71 -1.2973
95 72 -1.2973
95 73 -1.2973
95 95 -1.08108
95 104 -2.86486
95 126 0.162162
96 74 -1.2973
96 75 -1.2973
96 76 -1.2973
96 77 -1.2973
96 78 -1.2973
96 79 -1.2973
96 80 -1.2973
96 81 -1.2973
96 82 -1.2973
96 96 -1.08108
96 100 0.540541
96 105 -2.86486
96 112 -0.702703
96 118 -0.108108
96 122 -1.08108
96 127 0.162162
96 131 -0.540541
96 138 -1.89189
97 83 -1.2973
97 84 -1.2973
97 85 -1.2973
97 101 0.540541
97 113 -0.702703
97 139 -1.89189
98 86 -1.2973
98 97 -1.08108
98 106 -2.86486
98 114 -0.702703
98 119 -0.108108
98 123 -1.08108
98 132 -0.540541
98 140 -1.89189
99 87 -2.05405
99 88 -2.05405
99 89 -2.05405
99 90 -2.05405
99 91 -2.05405
99 92 -2.05405
99 107 -2.10811
99 115 0.0540541
99 128 0.918919
99 133 0.216216
99 141 -1.13514
100 1 0.540541
100 4 1.62162
100 17 1.24324
100 25 0.648649
100 29 1.62162
100 35 1.08108
100 41 2.43243
100 45 -0.756757
100 53 -0.756757
100 59 -0.756757
100 67 -0.756757
100 74 -0.756757
100 87 -0.756757
101 1 -3.67568
101 4 -2.59459
101 11 -4.21622
101 17 -2.97297
101 25 -3.56757
101 29 -2.59459
101 35 -3.13514
101 41 -1.78378
101 45 -4.97297
101 53 -4.97297
101 59 -4.97297
101 67 -4.97297
101 74 -4.97297
101 87 -4.97297
102 18 1.24324
102 33 0.378378
102 36 1.08108
102 48 -0.756757
102 54 -0.756757
102 60 -0.756757
102 68 -0.756757
102 75 -0.756757
103 18 -6.54054
103 33 -7.40541
103 36 -6.7027
103 48 -8.54054
103 54 -8.54054
103 60 -8.54054
103 68 -8.54054
103 75 -8.54054
104 5 1.62162
104 15 3.40541
104 19 1.24324
104 37 1.08108
104 49 -0.756757
104 61 -0.756757
104 69 -0.756757
104 76 -0.756757
104 83 -0.756757
104 88 -0.756757
104 170 1.62162
104 171 2.43243
105 5 -1.35135
105 15 0.432432
105 19 -1.72973
105 37 -1.89189
105 49 -3.72973
105 61 -3.72973
105 69 -3.72973
105 76 -3.72973
105 83 -3.72973
105 88 -3.72973
105 169 -2.97297
105 170 -1.35135
105 171 -0.540541
106 6 1.62162
106 20 1.24324
106 26 0.648649
106 30 1.62162
106 38 1.08108
106 55 -0.756757
106 62 -0.756757
106 77 -0.756757
106 84 -0.756757
106 89 -0.756757
107 6 -4.59459
107 12 -6.21622
107 20 -4.97297
107 26 -5.56757
107 30 -4.59459
107 38 -5.13514
107 55 -6.97297
107 62 -6.97297
107 77 -6.97297
107 84 -6.97297
107 89 -6.97297
108 21 1.24324
108 39 1.08108
108 42 2.43243
108 50 -0.756757
108 63 -0.756757
108 78 -0.756757
108 90 -0.756757
109 21 -2.97297
109 39 -3.13514
109 42 -1.78378
109 50 -4.97297
109 63 -4.97297
109 78 -4.97297
109 90 -4.97297
110 2 0.540541
110 7 1.62162
110 22 1.24324
110 27 0.648649
110 34 0.378378
110 51 -0.756757
110 56 -0.756757
110 64 -0.756757
110 70 -0.756757
110 79 -0.756757
111 2 -6.75676
111 7 -5.67568
111 22 -6.05405
111 27 -6.64865
111 34 -6.91892
111 51 -8.05405
111 56 -8.05405
111 64 -8.05405
111 70 -8.05405
111 79 -8.05405
112 8 1.62162
112 23 1.24324
112 40 1.08108
112 52 -0.756757
112 65 -0.756757
112 71 -0.756757
112 80 -0.756757
112 86 -0.756757
113 8 -7.62162
113 13 -9.24324
113 23 -8.0
113 40 -8.16216
113 52 -10.0
113 65 -10.0
113 71 -10.0
113 80 -10.0
113 86 -10.0
114 9 1.62162
114 24 1.24324
114 31 1.62162
114 43 2.43243
114 46 -0.756757
114 57 -0.756757
114 72 -0.756757
114 81 -0.756757
114 85 -0.756757
114 91 -0.756757
115 9 -0.648649
115 24 -1.02703
115 31 -0.648649
115 43 0.162162
115 46 -3.02703
115 57 -3.02703
115 72 -3.02703
115 81 -3.02703
115 85 -3.02703
115 91 -3.02703
116 3 0.540541
116 10 1.62162
116 16 3.40541
116 28 0.648649
116 32 1.62162
116 44 2.43243
116 47 -0.756757
116 58 -0.756757
116 66 -0.756757
116 73 -0.756757
116 82 -0.756757
116 92 -0.756757
117 3 -6.97297
117 10 -5.89189
117 14 -7.51351
117 16 -4.10811
117 28 -6.86486
117 32 -5.89189
117 44 -5.08108
117 47 -8.27027
117 58 -8.27027
117 66 -8.27027
117 73 -8.27027
117 82 -8.27027
117 92 -8.27027
1.79769313486232E+308 # value for infinity
-1.79769313486232E+308 # default left-hand-side value
63 # number of non-default left-hand-sides
28 0.0
29 0.0
30 0.0
31 0.0
32 0.0
33 0.0
34 0.0
35 0.0
36 0.0
37 0.0
38 0.0
39 0.0
40 0.0
41 0.0
42 0.0
43 0.0
44 0.0
45 0.0
46 0.0
48 0.0
50 0.0
52 0.0
54 0.0
56 0.0
58 0.0
60 0.0
62 0.0
64 0.0
65 0.0
66 0.0
67 0.0
68 0.0
69 0.0
70 0.0
71 0.0
72 0.0
73 0.0
75 0.0
77 0.0
79 0.0
81 0.0
83 0.0
85 0.0
87 0.0
89 0.0
91 0.0
92 0.0
93 0.0
94 0.0
95 0.0
96 0.0
97 0.0
98 0.0
99 0.0
100 0.0
102 0.0
104 0.0
106 0.0
108 0.0
110 0.0
112 0.0
114 0.0
116 0.0
0.0 # default right-hand-side value
63 # number of non-default right-hand-sides
1 10.0
2 10.0
3 10.0
4 10.0
5 10.0
6 10.0
7 10.0
8 10.0
9 10.0
10 10.0
11 0.601266
12 1.29747
13 1.42405
14 1.20253
15 0.443038
16 1.8038
17 0.85443
18 1.42405
19 0.949367
20 10.0
21 10.0
22 10.0
23 10.0
24 10.0
25 10.0
26 10.0
27 10.0
28 1.79769313486232E+308
29 1.79769313486232E+308
30 1.79769313486232E+308
31 1.79769313486232E+308
32 1.79769313486232E+308
33 1.79769313486232E+308
34 1.79769313486232E+308
35 1.79769313486232E+308
36 1.79769313486232E+308
46 1.79769313486232E+308
48 1.79769313486232E+308
50 1.79769313486232E+308
52 1.79769313486232E+308
54 1.79769313486232E+308
56 1.79769313486232E+308
58 1.79769313486232E+308
60 1.79769313486232E+308
62 1.79769313486232E+308
73 1.79769313486232E+308
75 1.79769313486232E+308
77 1.79769313486232E+308
79 1.79769313486232E+308
81 1.79769313486232E+308
83 1.79769313486232E+308
85 1.79769313486232E+308
87 1.79769313486232E+308
89 1.79769313486232E+308
100 1.79769313486232E+308
102 1.79769313486232E+308
104 1.79769313486232E+308
106 1.79769313486232E+308
108 1.79769313486232E+308
110 1.79769313486232E+308
112 1.79769313486232E+308
114 1.79769313486232E+308
116 1.79769313486232E+308
0.0 # default variable lower bound value
27 # number of non-default variable lower bounds
142 0.481283
143 0.855615
144 0.855615
145 0.481283
146 1.81818
147 0.481283
148 0.855615
149 0.481283
150 0.855615
151 1.73469
152 1.53061
153 1.53061
154 2.60204
155 1.73469
156 1.53061
157 1.73469
158 1.53061
159 1.53061
160 1.13514
161 0.756757
162 0.756757
163 1.40541
164 1.13514
165 0.756757
166 0.756757
167 1.2973
168 0.756757
10.0 # default variable upper bound value
122 # number of non-default variable upper bounds
1 0.601266
2 1.8038
3 0.949367
4 0.601266
5 1.42405
6 1.20253
7 1.8038
8 0.85443
9 1.42405
10 0.949367
11 0.601266
12 1.20253
13 0.85443
14 0.949367
15 1.42405
16 0.949367
17 0.601266
18 1.29747
19 1.42405
20 1.20253
21 0.443038
22 1.8038
23 0.85443
24 1.42405
25 0.601266
26 1.20253
27 1.8038
28 0.949367
29 0.601266
30 1.20253
31 1.42405
32 0.949367
33 1.29747
34 1.8038
35 0.601266
36 1.29747
37 1.42405
38 1.20253
39 0.443038
40 0.85443
41 0.601266
42 0.443038
43 1.42405
44 0.949367
45 0.601266
46 1.42405
47 0.949367
48 1.29747
49 1.42405
50 0.443038
51 1.8038
52 0.85443
53 0.601266
54 1.29747
55 1.20253
56 1.8038
57 1.42405
58 0.949367
59 0.601266
60 1.29747
61 1.42405
62 1.20253
63 0.443038
64 1.8038
65 0.85443
66 0.949367
67 0.601266
68 1.29747
69 1.42405
70 1.8038
71 0.85443
72 1.42405
73 0.949367
74 0.601266
75 1.29747
76 1.42405
77 1.20253
78 0.443038
79 1.8038
80 0.85443
81 1.42405
82 0.949367
83 1.42405
84 1.20253
85 1.42405
86 0.85443
87 0.601266
88 1.42405
89 1.20253
90 0.443038
91 1.42405
92 0.949367
142 4.91979
143 4.91979
144 4.91979
145 4.91979
146 4.75936
147 4.91979
148 4.91979
149 4.91979
150 4.91979
151 4.23469
152 4.38776
153 4.38776
154 4.23469
155 3.82653
156 4.38776
157 4.23469
158 4.38776
159 4.23469
160 3.18919
161 3.18919
162 4.16216
163 4.16216
164 4.16216
165 4.16216
166 3.18919
167 4.16216
168 4.16216
169 1.42405
170 1.42405
171 1.42405
0.0 # default variable primal value in starting point
27 # number of non-default variable primal values in starting point
142 0.481283
143 0.855615
144 0.855615
145 0.481283
146 1.81818
147 0.481283
148 0.855615
149 0.481283
150 0.855615
151 1.73469
152 1.53061
153 1.53061
154 2.60204
155 1.73469
156 1.53061
157 1.73469
158 1.53061
159 1.53061
160 1.13514
161 0.756757
162 0.756757
163 1.40541
164 1.13514
165 0.756757
166 0.756757
167 1.2973
168 0.756757
0.0 # default constraint dual value in starting point
0 # number of non-default constraint dual values in starting point
0.0 # default variable bound dual value in starting point
0 # number of non-default variable bound dual values in starting point
0 # number of non-default variable names
0 # number of non-default constraint names
